results/res_prop_muc/res_Cimatti_mathsat_cores/QF_LIA/MULTIPLIER_4.msat.smt.smt2.res
unsat
( c0
  c1
  c10
  c11
  c12
  c13
  c14
  c15
  c16
  c17
  c18
  c19
  c2
  c20
  c23
  c24
  c25
  c27
  c28
  c29
  c3
  c30
  c31
  c32
  c33
  c34
  c35
  c36
  c39
  c4
  c40
  c42
  c43
  c44
  c45
  c46
  c47
  c48
  c49
  c5
  c50
  c51
  c52
  c53
  c54
  c55
  c56
  c57
  c58
  c59
  c6
  c60
  c62
  c63
  c64
  c65
  c66
  c67
  c68
  c69
  c7
  c70
  c71
  c72
  c73
  c74
  c75
  c78
  c79
  c8
  c81
  c82
  c9 )
